horizon = 100000;numberWorkers = 1;
numberProducts = 5;
numberProductTypes = 1;
numberStations = 3;

releaseTimeW = [0];
workerInitial = [1];
currentStation = [0, 0, 0, 0, 0];
currentStep = [0, 0, 0, 0, 0];
currentBuffer = [0, 0, 0, 0, 0];
releaseTime = [0, 0, 0, 0, 0];
productType = [1, 1, 1, 1, 1];

% workstep duration times as [allVariants][allStations] matrix
productionTimeMatrix = array2d(1..numberProductTypes, 1..numberStations, [100, 100, 80]);
% is automatic flag as a [allVariants][allStations] matrix
numberManualWorksteps = array2d(1..numberProductTypes, 1..numberStations, [1, 1, 2]);
% setup times as a [allVariants][allStations] matrix
setupTimes = array2d(1..numberProductTypes, 1..numberStations, [0, 0, 10]);
% takedown times as a [allVariants][allStations] matrix
takedownTimes = array2d(1..numberProductTypes, 1..numberStations, [0, 0, 10]);
% worker walking times from station to station as a [allStations][allStations] matrix
workerMovementMatrix = array2d(1..numberStations, 1..numberStations, [0, 10, 20, 10, 0, 10, 20, 10, 0]);